p cnf 38 43
-3 -15 0
-3 -16 0
3 4 15 16 0
-4 -15 0
-4 -16 0
1 0
2 0
3 0
4 0
-5 -6 0
5 6 0
-7 -8 0
7 8 0
9 0
10 0
11 0
12 0
13 0
14 0
-15 0
-16 0
-17 -18 0
17 18 0
-19 -20 0
19 20 0
-21 -22 0
21 22 0
-23 -24 0
23 24 0
-25 0
-26 0
27 0
28 0
29 0
30 0
-31 -32 0
31 32 0
-33 -34 0
33 34 0
-35 -36 0
35 36 0
-37 -38 0
37 38 0